LengthSchedulingHorizon=587;
nAttributes=2;
SetupCosts=[[0, 0], [0, 3], [3, 2]];
SetupTimes=[[0, 0], [0, 3], [3, 2]];
nMachines=5;
MinCap=[0, 0, 0, 0, 0];
MaxCap=[11, 15, 5, 20, 6];

initState=[2, 2, 2, 2, 1];
nShifts=5;
ShiftStartTimes = [[0, 0, 0, 104, 517], [0, 0, 0, 129, 580], [0, 0, 0, 70, 156], [10, 71, 114, 156, 570], [0, 93, 266, 407, 500]];
ShiftEndTimes = [[0, 0, 0, 426, 579], [0, 0, 0, 543, 587], [0, 0, 0, 135, 556], [70, 112, 150, 467, 584], [0, 244, 388, 497, 568]];
nJobs=50;
EligibleMachines = [{5}, {3}, {1, 5}, {3, 4}, {1}, {1, 5}, {2, 4}, {2, 3}, {1, 3, 5}, {5}, {4, 5}, {2}, {1, 3, 4, 5}, {4}, {1, 4}, {4}, {1, 3}, {2, 5}, {1}, {2}, {2, 3}, {2, 3, 4}, {2}, {1}, {4}, {5}, {1}, {5}, {3}, {3, 5}, {3}, {1}, {2, 3}, {4}, {1}, {1}, {1, 3}, {2}, {1, 5}, {5}, {3, 4}, {2, 3}, {1, 5}, {4, 5}, {1, 2, 4}, {2}, {2}, {4}, {2, 3}, {3, 4}];
EarliestStart=[24, 26, 19, 8, 14, 6, 10, 20, 19, 6, 19, 2, 11, 25, 19, 17, 16, 25, 8, 21, 27, 27, 24, 1, 5, 21, 13, 6, 27, 21, 25, 10, 13, 17, 11, 0, 6, 2, 10, 14, 7, 26, 11, 13, 13, 1, 9, 10, 23, 0];
LatestEnd=[25, 29, 25, 27, 19, 8, 11, 37, 24, 14, 25, 14, 24, 26, 26, 25, 17, 35, 13, 28, 36, 41, 39, 11, 10, 22, 21, 20, 38, 25, 43, 20, 21, 29, 25, 11, 19, 5, 24, 17, 10, 40, 14, 21, 24, 8, 11, 11, 31, 10];
MinTime=[1, 2, 4, 10, 3, 2, 1, 10, 3, 7, 6, 10, 9, 1, 5, 7, 1, 6, 3, 4, 6, 8, 8, 6, 3, 1, 5, 10, 6, 3, 10, 10, 5, 10, 8, 7, 7, 2, 8, 2, 2, 8, 3, 6, 7, 5, 2, 1, 6, 10];
MaxTime=[10, 10, 10, 10, 10, 10, 10, 10, 10, 10, 10, 10, 10, 10, 10, 10, 10, 10, 10, 10, 10, 10, 10, 10, 10, 10, 10, 10, 10, 10, 10, 10, 10, 10, 10, 10, 10, 10, 10, 10, 10, 10, 10, 10, 10, 10, 10, 10, 10, 10];
JobSize=[1, 4, 2, 4, 4, 3, 5, 4, 4, 3, 4, 2, 5, 2, 3, 3, 1, 4, 5, 4, 5, 2, 1, 2, 1, 5, 2, 1, 5, 4, 2, 2, 5, 4, 4, 1, 4, 5, 2, 1, 3, 1, 5, 5, 1, 3, 3, 3, 3, 4];
Attribute=[2, 1, 2, 2, 2, 2, 1, 1, 2, 2, 2, 1, 1, 2, 2, 2, 1, 2, 2, 2, 2, 1, 2, 1, 1, 1, 1, 2, 2, 1, 1, 1, 2, 1, 1, 2, 2, 1, 1, 2, 2, 1, 1, 2, 1, 1, 2, 1, 2, 1];

upper_bound_integer_objective=31500;
mult_factor_total_runtime=4;
mult_factor_finished_toolate=600;
mult_factor_total_setuptimes=0;
mult_factor_total_setupcosts=2;
running_time_bound=270;
min_duration=1;
max_duration=10;
max_setup_time=3;
max_setup_cost=3;
